3 6 8 18 2 4 14 1 17 5 0 16 9 15 11 13 12 10 19 7  
3 6 8 1 15 14 12 4 0 19 5 13 16 9 2 10 11 17 18 7  
3 6 8 1 14 15 12 4 0 19 5 13 16 9 2 10 11 17 18 7  
3 6 8 1 14 12 0 2 19 4 11 9 10 5 16 15 13 17 7 18  
3 6 8 18 2 4 0 1 14 5 17 16 9 15 13 12 10 11 19 7  
3 6 8 1 14 15 12 0 5 4 9 13 16 19 2 10 11 17 18 7  
3 6 18 2 1 14 17 16 9 4 11 12 13 0 7 5 8 10 15 19  
3 6 18 2 17 8 14 1 15 5 0 16 9 4 13 12 10 11 19 7  
3 6 18 1 2 14 17 9 16 4 12 15 13 11 7 0 8 10 19 5  
3 6 18 2 1 14 17 16 9 4 12 15 13 11 7 0 10 8 5 19  
3 6 18 2 14 1 17 16 9 4 8 12 11 13 5 0 7 19 10 15  
3 6 18 2 8 14 1 17 16 9 4 11 12 13 0 7 10 5 19 15  
3 6 18 2 1 14 17 16 9 4 8 12 13 11 7 5 0 10 19 15  
3 6 18 2 14 8 1 17 16 9 4 11 12 13 0 7 19 10 15 5  
3 6 8 18 2 4 1 14 17 5 0 16 9 15 13 12 10 11 19 7  
3 6 8 18 2 14 1 17 16 9 4 0 15 5 11 12 19 13 10 7  
3 6 8 18 2 4 1 17 9 16 14 12 15 11 13 10 5 0 19 7  
3 6 8 1 2 14 18 17 16 9 4 12 0 5 11 15 13 10 19 7  
3 6 18 2 17 8 14 1 15 5 0 16 9 4 13 11 12 10 19 7  
3 6 8 18 2 14 1 17 16 9 4 0 12 19 13 11 10 5 15 7  
3 6 18 2 14 8 1 17 16 9 4 0 12 19 13 10 5 11 15 7  
3 6 18 2 1 14 17 16 9 4 0 12 13 11 7 5 8 10 15 19  
3 6 18 2 14 8 1 17 16 9 4 11 12 13 5 7 19 10 15 0  
3 6 18 1 2 14 17 16 9 4 8 12 13 5 11 19 0 10 15 7  
3 6 18 2 14 1 17 16 9 4 12 11 13 0 7 8 5 10 19 15  
3 6 8 18 2 14 1 17 16 9 4 0 19 5 11 12 15 13 10 7  
3 6 18 2 8 14 1 17 16 9 4 0 12 19 11 13 10 5 15 7  
3 6 8 18 2 14 1 17 16 9 4 12 19 11 13 10 0 15 5 7  
3 6 18 2 1 14 17 16 9 4 8 12 11 13 5 15 0 7 10 19  
3 6 18 2 1 14 17 16 9 4 8 13 11 12 0 7 5 10 15 19  
3 6 18 2 1 14 17 16 9 4 8 12 19 11 15 13 0 10 5 7  
3 6 8 18 2 4 1 0 14 17 5 16 9 15 11 12 13 10 19 7  
3 6 8 18 2 4 14 1 17 5 0 16 9 12 19 7 11 10 15 13  
3 6 8 18 2 14 1 17 16 9 4 12 0 19 5 7 13 11 10 15  
3 6 8 1 2 14 18 17 16 9 4 0 19 5 13 12 15 11 7 10  
3 6 18 2 14 8 1 17 16 9 4 12 11 19 13 5 7 10 15 0  
3 6 18 2 14 8 1 17 16 9 4 11 12 13 5 0 10 19 15 7  
3 6 18 2 1 14 17 16 9 4 8 12 13 5 11 0 7 19 10 15  
3 6 18 2 14 1 17 16 9 4 12 19 11 13 7 8 0 10 15 5  
3 6 8 18 2 4 14 1 17 5 0 16 9 15 11 12 13 7 10 19  
3 6 8 18 2 14 1 17 16 9 4 11 12 0 19 7 13 10 5 15  
3 6 18 2 1 14 17 16 9 4 8 11 12 13 5 15 0 7 10 19  
3 6 18 2 1 14 17 16 9 4 12 11 13 0 7 8 5 10 15 19  
3 6 8 18 2 14 1 17 16 9 4 12 19 11 13 10 15 0 5 7  
3 6 18 2 14 8 1 17 16 9 4 11 12 13 5 19 7 10 15 0  
3 6 8 18 2 4 14 1 17 16 9 12 0 15 13 10 5 11 19 7  
3 6 18 2 14 1 17 4 9 16 13 12 11 0 7 8 19 10 15 5  
3 6 18 2 14 1 17 16 9 4 8 12 15 11 5 13 7 0 10 19  
3 6 18 2 4 8 14 1 5 0 17 16 9 15 13 12 10 11 19 7  
3 6 18 2 14 8 1 17 16 9 4 11 12 13 7 10 0 19 15 5  
3 6 18 2 1 14 17 16 9 4 8 12 11 13 15 10 5 0 19 7  
3 6 8 18 2 4 14 1 17 5 0 16 9 15 13 12 11 7 10 19  
3 6 18 2 1 14 17 16 9 4 8 12 11 13 0 19 10 15 5 7  
3 6 18 1 2 16 17 14 9 4 8 12 13 11 0 7 5 10 15 19  
3 6 8 18 2 17 14 1 4 5 0 16 9 15 13 12 10 11 19 7  
3 6 8 18 2 14 1 17 16 9 4 12 15 11 19 13 7 0 10 5  
3 6 8 18 2 14 1 17 16 9 4 13 12 11 0 7 10 5 19 15  
3 6 8 18 2 14 1 17 16 9 4 11 12 19 0 7 13 10 5 15  
3 6 8 1 15 14 12 4 0 19 5 13 16 9 2 10 11 17 18 7  
3 6 8 18 2 14 1 17 16 9 4 5 12 15 11 13 0 10 19 7  
3 6 8 18 2 4 1 14 17 16 9 12 13 5 11 0 15 7 10 19  
3 6 8 18 2 4 14 1 17 5 0 16 9 11 19 7 12 13 10 15  
3 6 8 18 2 14 1 17 16 9 4 12 19 11 13 10 0 5 15 7  
3 6 8 18 2 14 1 17 16 9 4 12 0 15 13 5 10 11 19 7  
3 6 18 2 1 14 17 16 9 8 4 5 0 15 11 12 13 10 19 7  
3 6 8 18 2 14 1 17 16 9 4 12 19 11 13 10 5 15 0 7  
3 6 8 18 2 14 1 17 16 9 4 12 0 19 5 11 13 7 10 15  
3 6 8 1 2 14 18 17 16 9 4 0 19 7 13 12 10 11 15 5  
3 6 8 18 2 4 14 1 17 5 0 16 9 11 13 12 15 7 10 19  
3 6 8 18 2 4 14 1 17 5 0 16 9 11 19 7 12 10 13 15  
3 6 8 18 2 4 14 1 17 16 9 13 12 11 19 7 0 10 15 5  
3 6 8 18 2 14 1 17 16 9 4 12 19 11 0 7 10 13 5 15  
3 6 8 18 2 14 4 1 17 5 0 16 9 13 12 11 19 7 10 15  
3 6 18 2 14 1 17 16 9 4 8 12 11 13 5 19 7 0 10 15  
3 6 8 1 2 14 18 17 16 9 4 12 0 15 11 19 7 13 10 5  
3 6 18 1 2 14 17 16 9 4 8 12 13 11 0 7 10 19 15 5  
3 6 18 2 1 14 17 16 9 4 12 11 13 0 7 8 10 5 19 15  
3 6 8 18 2 14 1 17 16 9 4 0 12 19 13 11 7 10 5 15  
3 6 8 18 2 4 0 1 14 17 5 16 9 15 11 12 13 10 19 7  
3 6 18 1 2 14 17 9 16 4 8 12 13 5 11 15 0 10 19 7  
3 6 8 18 2 14 1 17 16 9 4 13 12 11 0 7 10 19 15 5  
3 6 8 18 2 14 1 17 16 9 4 11 12 19 7 13 0 10 5 15  
3 6 8 1 2 14 18 17 16 9 4 5 11 12 0 7 13 10 19 15  
3 6 8 1 2 14 18 17 16 9 4 5 11 12 0 15 13 10 19 7  
3 6 8 18 2 14 1 17 16 9 4 11 12 0 19 13 7 10 15 5  
3 6 8 18 2 1 14 17 16 9 4 12 13 11 19 7 0 10 15 5  
3 6 8 18 2 14 1 17 16 9 4 0 19 5 11 12 13 15 10 7  
3 6 8 18 2 14 1 17 16 9 4 11 12 0 19 7 13 10 15 5  
3 6 18 1 2 14 17 16 9 4 8 12 13 11 0 7 10 5 19 15  
3 6 8 18 2 14 1 17 16 9 4 0 19 5 13 12 15 11 10 7  
3 6 8 18 2 14 1 17 16 9 4 11 12 19 0 7 13 10 15 5  
3 6 8 18 2 14 1 17 16 9 4 12 0 15 5 7 13 11 10 19  
3 6 18 2 14 1 17 16 9 4 8 12 19 11 13 7 5 10 15 0  
3 6 18 2 14 8 1 17 16 9 4 12 13 11 7 5 0 10 15 19  
3 6 8 18 2 14 1 17 16 9 4 12 15 11 19 13 7 10 0 5  
3 6 8 18 2 1 17 14 5 9 4 0 16 15 11 12 13 10 19 7  
3 6 18 1 2 14 17 16 9 4 12 11 13 0 7 8 5 10 15 19  
3 6 8 1 2 18 17 14 5 9 4 13 16 15 11 12 0 10 19 7  
3 6 18 2 8 14 1 17 16 9 4 12 19 11 13 10 15 0 5 7  
